% seed = 0

mint = 31;
% maxt = 170;

nActs = 62;
dur = [0,3,4,2,3,7,2,1,1,3,3,2,4,2,2,1,3,4,3,3,2,4,2,2,1,1,4,1,5,6,3,4,4,2,3,2,3,4,1,3,2,2,2,4,6,2,5,3,1,3,5,1,3,4,3,1,3,3,2,3,2,0];

nSkills = 15;
sreq = [| 0,0,0,0,0,0,0,0,0,0,0,0,0,0,0,
	| 0,0,0,0,0,0,0,1,2,0,0,0,0,1,0,
	| 0,0,0,0,0,0,1,0,0,0,0,0,0,0,0,
	| 0,0,0,0,0,2,0,0,0,0,0,0,0,0,0,
	| 0,0,0,0,1,1,0,0,0,0,0,1,0,0,0,
	| 0,0,0,0,0,1,0,1,0,0,0,0,0,1,0,
	| 0,0,0,0,0,0,0,0,0,0,0,1,0,1,0,
	| 0,0,0,0,0,0,0,1,1,0,0,0,1,0,0,
	| 0,0,0,1,0,0,1,0,1,0,1,0,0,0,0,
	| 0,0,0,1,0,1,0,0,1,0,0,0,0,0,0,
	| 0,0,1,0,1,1,0,0,1,0,0,1,0,0,0,
	| 0,0,0,0,0,0,0,0,0,1,0,0,0,0,0,
	| 0,0,0,0,0,0,0,0,0,0,0,1,1,0,0,
	| 0,0,0,0,1,0,1,0,0,0,0,2,0,0,0,
	| 0,0,1,0,0,2,0,0,0,0,0,0,1,0,0,
	| 0,0,0,0,0,0,0,0,0,1,0,2,0,0,0,
	| 0,0,0,1,0,1,0,0,1,1,1,0,0,0,0,
	| 0,0,0,0,1,1,0,0,0,0,1,0,0,1,0,
	| 0,0,0,1,0,1,0,0,1,0,0,0,0,0,0,
	| 0,0,0,1,0,2,0,1,0,0,0,2,0,0,0,
	| 0,0,0,0,0,1,0,1,0,0,0,0,0,0,0,
	| 0,0,0,0,1,0,0,0,2,0,2,0,0,1,0,
	| 0,0,0,0,1,0,0,0,0,0,0,0,1,0,0,
	| 0,0,0,1,0,0,0,0,0,0,0,1,2,1,0,
	| 0,0,0,0,0,2,0,0,1,0,0,1,0,0,0,
	| 0,0,2,0,0,0,0,0,1,0,0,0,1,1,0,
	| 0,0,0,1,0,0,0,0,0,0,0,0,1,2,0,
	| 0,0,0,0,0,2,0,0,0,0,0,0,0,0,0,
	| 0,0,0,0,1,0,0,0,1,0,0,0,1,1,0,
	| 0,0,1,1,0,1,0,0,1,0,0,0,1,1,0,
	| 0,0,0,0,0,1,0,1,0,0,0,0,0,2,0,
	| 0,1,0,1,0,1,0,1,1,0,0,1,0,0,0,
	| 0,0,0,0,0,0,0,0,0,0,0,1,0,0,0,
	| 0,0,1,0,0,0,0,0,0,0,0,0,0,0,0,
	| 0,0,0,0,0,0,0,2,1,0,0,0,0,0,0,
	| 0,0,0,0,0,1,0,0,0,1,0,2,1,1,0,
	| 0,1,1,0,0,0,0,0,0,0,0,0,0,0,0,
	| 0,0,1,2,0,0,0,0,0,0,0,1,0,1,0,
	| 0,0,0,0,0,1,0,0,0,0,0,1,1,0,0,
	| 0,0,0,0,0,2,0,0,0,0,0,0,0,1,0,
	| 0,0,1,0,1,0,0,1,0,0,0,0,0,1,0,
	| 0,0,0,0,1,2,0,0,0,0,0,0,0,0,0,
	| 1,0,0,0,1,1,0,0,2,0,0,1,0,0,0,
	| 0,0,1,0,1,0,0,0,2,0,1,0,0,1,0,
	| 0,0,1,0,0,1,0,0,1,0,0,3,0,0,0,
	| 0,0,0,0,0,1,0,2,1,0,0,1,0,1,0,
	| 0,0,0,0,0,0,0,2,0,1,0,1,0,0,0,
	| 0,0,0,0,0,0,0,0,0,0,0,1,0,0,0,
	| 0,0,0,0,0,0,0,0,0,0,2,0,0,0,0,
	| 0,0,1,0,0,2,0,0,0,0,1,0,0,0,0,
	| 0,0,0,0,0,1,0,0,0,0,1,1,1,1,0,
	| 0,0,0,0,0,1,0,0,0,0,0,2,0,0,1,
	| 1,0,0,0,0,1,0,0,0,0,1,0,1,0,0,
	| 0,0,0,0,1,0,1,0,0,0,0,0,0,0,0,
	| 0,0,0,0,1,0,0,0,1,0,0,0,0,1,0,
	| 0,0,0,0,0,0,0,0,0,0,0,0,0,1,0,
	| 0,0,0,1,0,1,0,0,1,0,0,0,0,2,0,
	| 0,0,0,0,0,0,0,0,1,0,0,1,0,1,0,
	| 0,0,1,0,0,0,0,1,0,0,0,1,0,3,0,
	| 0,0,0,0,0,1,0,0,0,0,0,0,1,1,0,
	| 0,1,0,0,0,1,0,0,1,0,1,0,1,1,0,
	| 0,0,0,0,0,0,0,0,0,0,0,0,0,0,0, |];

% SumOfsreq = 220;

nResources = 20;
mastery = [| false,false,false,true,true,true,false,false,false,false,false,false,true,true,true,
	| false,false,false,false,false,false,false,false,false,false,false,false,true,true,true,
	| false,false,false,false,true,true,false,false,false,false,false,false,false,false,false,
	| false,false,false,false,false,true,false,false,false,false,false,false,false,false,false,
	| false,false,false,false,false,false,false,false,false,false,false,true,false,false,false,
	| false,false,false,false,false,false,false,true,true,false,false,false,false,false,false,
	| false,false,false,false,false,false,false,false,false,false,true,true,false,false,false,
	| false,false,false,false,false,false,false,false,true,false,false,false,false,false,false,
	| false,false,false,false,false,false,false,true,true,false,false,false,false,false,false,
	| false,false,false,false,false,false,false,false,false,false,false,true,true,true,true,
	| false,false,true,true,true,true,false,false,false,true,true,true,false,false,false,
	| false,false,false,false,false,false,false,false,false,false,false,false,false,true,true,
	| true,true,true,false,false,true,false,false,true,false,false,false,false,false,false,
	| false,false,false,false,false,true,false,false,false,false,false,false,false,false,false,
	| false,false,false,false,false,false,false,false,false,true,true,true,false,false,false,
	| false,false,false,true,true,true,false,false,false,false,false,false,false,false,false,
	| false,false,false,false,false,false,false,false,false,false,false,false,true,true,true,
	| false,false,true,false,false,false,false,false,false,false,false,false,false,false,false,
	| false,false,false,false,false,false,true,true,true,false,false,false,false,false,false,
	| false,false,false,false,false,false,false,true,true,false,false,false,false,false,false, |];

nPrecs = 93;
pred = [1,1,1,2,2,2,3,3,3,4,5,5,5,6,7,8,9,10,10,10,11,12,12,13,13,13,14,15,15,16,16,16,17,17,17,18,19,19,20,21,22,23,24,24,24,25,25,26,26,26,27,28,28,29,30,31,31,31,32,32,32,33,34,35,36,37,37,38,39,40,41,42,43,44,45,46,47,48,49,50,50,50,51,52,53,54,55,56,57,58,59,60,61];
succ = [2,3,4,24,20,8,9,6,15,5,11,12,29,7,25,19,10,60,14,16,13,17,39,47,38,23,23,31,48,33,18,22,41,27,43,29,58,52,21,26,61,51,34,43,39,35,36,37,30,32,28,45,46,55,34,45,37,40,50,44,40,57,48,42,42,53,39,42,49,47,52,45,55,57,58,57,51,52,56,59,54,55,53,54,61,56,56,61,59,59,62,62,62];

nUnrels = 1307;
unpred = [2,2,2,2,2,2,2,2,2,2,2,2,2,2,2,2,2,2,2,2,2,2,2,2,2,2,2,2,2,2,2,3,3,3,3,3,3,3,3,3,3,3,3,3,3,3,3,3,3,3,3,3,3,3,4,4,4,4,4,4,4,4,4,4,4,4,4,4,4,4,4,4,4,4,4,4,4,4,4,4,4,4,4,5,5,5,5,5,5,5,5,5,5,5,5,5,5,5,5,5,5,5,5,5,5,5,5,5,5,5,5,5,6,6,6,6,6,6,6,6,6,6,6,6,6,6,6,6,6,6,6,6,6,6,6,6,6,6,6,6,6,6,6,6,6,6,6,6,6,6,6,6,6,6,6,6,6,6,6,7,7,7,7,7,7,7,7,7,7,7,7,7,7,7,7,7,7,7,7,7,7,7,7,7,7,7,7,7,7,7,7,7,7,7,7,7,7,7,7,7,7,7,7,7,7,7,8,8,8,8,8,8,8,8,8,8,8,8,8,8,8,8,8,8,8,8,8,8,8,8,8,8,8,8,8,8,8,8,8,8,8,8,8,8,8,8,8,8,8,8,8,8,9,9,9,9,9,9,9,9,9,9,9,9,9,9,9,9,9,9,9,9,9,9,9,9,9,9,9,9,9,9,9,9,9,9,9,9,10,10,10,10,10,10,10,10,10,10,10,10,10,10,10,10,10,10,10,10,10,10,10,10,10,10,10,10,10,10,10,10,10,10,10,10,11,11,11,11,11,11,11,11,11,11,11,11,11,11,11,11,11,11,11,11,11,11,11,11,11,11,11,11,11,11,11,11,11,11,11,11,11,11,11,12,12,12,12,12,12,12,12,12,12,12,12,12,12,12,12,12,12,12,12,12,12,12,12,12,12,12,12,12,12,12,12,13,13,13,13,13,13,13,13,13,13,13,13,13,13,13,13,13,13,13,13,13,13,13,13,13,13,13,13,13,13,13,13,13,13,13,13,13,13,14,14,14,14,14,14,14,14,14,14,14,14,14,14,14,14,14,14,14,14,14,14,14,14,14,14,14,14,14,14,14,14,14,14,14,14,14,14,14,14,14,14,14,15,15,15,15,15,15,15,15,15,15,15,15,15,15,15,15,15,15,15,15,15,15,15,15,15,15,15,15,15,15,16,16,16,16,16,16,16,16,16,16,16,16,16,16,16,16,16,16,16,16,16,16,16,16,16,16,16,16,16,16,16,16,16,16,16,16,17,17,17,17,17,17,17,17,17,17,17,17,17,17,17,17,17,17,17,17,17,17,17,17,17,17,17,17,17,17,18,18,18,18,18,18,18,18,18,18,18,18,18,18,18,18,18,18,18,18,18,18,18,18,18,18,18,18,18,18,18,18,18,18,18,18,18,18,18,19,19,19,19,19,19,19,19,19,19,19,19,19,19,19,19,19,19,19,19,19,19,19,19,19,19,19,19,19,19,19,19,19,19,19,19,20,20,20,20,20,20,20,20,20,20,20,20,20,20,20,20,20,20,20,21,21,21,21,21,21,21,21,21,21,21,21,21,21,21,21,21,21,21,22,22,22,22,22,22,22,22,22,22,22,22,22,22,22,22,22,22,22,22,22,22,22,22,22,22,22,22,22,22,22,22,22,22,22,22,22,22,23,23,23,23,23,23,23,23,23,23,23,23,23,23,23,23,23,23,23,23,23,23,23,23,23,23,23,23,23,23,23,23,23,23,23,24,24,24,24,24,24,24,24,24,24,24,24,24,24,24,24,24,24,24,24,24,24,24,24,24,24,24,25,25,25,25,25,25,25,25,25,25,25,25,25,25,25,25,25,25,25,25,25,25,25,25,25,25,25,25,25,25,26,26,26,26,26,26,26,26,26,26,26,26,26,26,26,27,27,27,27,27,27,27,27,27,27,27,27,27,27,27,27,27,27,27,27,27,27,27,27,27,27,27,27,28,28,28,28,28,28,28,28,28,28,28,28,28,28,28,28,28,28,28,28,28,28,28,28,28,28,28,28,29,29,29,29,29,29,29,29,29,29,29,29,29,29,29,29,29,29,29,29,29,29,29,29,29,29,29,29,29,30,30,30,30,30,30,30,30,30,30,30,30,30,30,30,30,30,30,30,30,30,30,30,30,30,31,31,31,31,31,31,31,31,31,31,31,31,31,31,31,31,31,31,32,32,32,32,32,32,32,32,32,32,32,32,32,32,32,32,32,33,33,33,33,33,33,33,33,33,33,33,33,33,33,33,33,33,33,33,33,33,33,33,33,33,33,34,34,34,34,34,34,34,34,34,34,34,34,34,34,34,34,34,34,34,34,34,34,35,35,35,35,35,35,35,35,35,35,35,35,35,35,35,35,35,35,35,35,35,35,36,36,36,36,36,36,36,36,36,36,36,36,36,36,36,36,36,36,36,36,36,37,37,37,37,37,37,37,37,37,37,37,37,37,37,37,37,37,37,37,38,38,38,38,38,38,38,38,38,38,38,38,38,38,38,38,38,38,38,39,39,39,39,39,39,39,39,39,39,39,39,39,39,39,39,39,39,39,40,40,40,40,40,40,40,40,40,40,40,40,40,40,40,40,40,41,41,41,41,41,41,41,41,41,41,41,41,41,41,41,41,42,42,42,42,42,42,42,42,42,42,42,42,42,42,42,42,43,43,43,43,43,43,43,43,43,43,43,43,43,43,43,44,44,44,44,44,44,44,44,44,44,44,44,44,44,44,45,45,45,45,45,45,45,45,45,45,45,45,45,45,46,46,46,46,46,46,46,46,46,46,46,46,46,47,47,47,47,47,47,47,47,47,47,47,48,48,48,48,48,48,48,48,48,49,49,49,49,49,49,49,49,49,49,50,50,50,50,50,50,51,51,51,51,51,51,51,51,52,52,52,52,52,52,53,53,53,53,53,53,53,54,54,54,54,54,55,55,55,55,56,56,56,56,57,57,57,58,58,59,59,60];
unsucc = [3,4,5,6,7,9,10,11,12,13,14,15,16,17,18,22,23,25,27,28,29,31,33,35,36,38,41,42,45,46,60,4,5,8,11,12,13,17,19,20,21,24,26,27,28,30,32,34,38,41,43,44,46,50,6,7,8,9,10,14,15,16,18,19,20,21,22,24,25,26,30,31,32,33,34,35,36,37,40,44,48,50,60,6,7,8,9,10,14,15,16,18,19,20,21,22,24,25,26,30,31,32,33,34,35,36,37,40,44,48,50,60,8,9,10,11,12,13,14,15,16,17,18,19,20,21,22,23,24,26,27,28,29,30,31,32,33,34,37,38,39,40,41,43,44,46,47,48,49,50,51,52,53,54,55,56,57,60,61,8,9,10,11,12,13,14,15,16,17,18,19,20,21,22,23,24,26,27,28,29,30,31,32,33,34,37,38,39,40,41,43,44,46,47,48,49,50,51,52,53,54,55,56,57,60,61,9,10,11,12,13,14,15,16,17,18,20,21,22,23,24,25,26,27,28,29,30,31,32,33,34,35,36,37,38,39,40,41,42,43,44,45,46,47,48,49,50,51,53,55,57,60,11,12,13,15,17,19,20,21,24,25,26,27,28,30,31,32,34,35,36,37,38,39,40,41,42,43,44,45,46,47,48,49,50,52,54,58,11,12,13,15,17,19,20,21,24,25,26,27,28,30,31,32,34,35,36,37,38,39,40,41,42,43,44,45,46,47,48,49,50,52,54,58,12,14,15,16,17,18,19,20,21,22,24,25,26,27,28,29,30,31,32,33,34,35,36,37,39,40,41,43,44,46,48,49,50,52,54,55,56,57,60,13,14,15,16,18,19,20,21,22,23,24,25,26,29,30,31,32,33,34,35,36,37,38,40,42,44,47,48,50,51,53,60,14,15,16,17,18,19,20,21,22,24,25,26,27,28,29,30,31,32,33,34,35,36,37,39,40,41,43,44,46,48,49,50,52,54,55,56,57,60,15,16,17,18,19,20,21,22,24,25,26,27,28,29,30,31,32,33,34,35,36,37,38,39,40,41,42,43,44,45,46,47,48,49,50,52,54,55,56,57,58,59,60,16,17,18,19,20,21,22,23,24,25,26,27,28,29,30,32,33,34,35,36,38,41,42,43,44,46,50,55,57,60,17,19,20,21,23,24,25,26,27,28,30,31,32,34,35,36,37,38,39,40,41,42,43,44,45,46,47,48,49,50,51,52,53,54,58,60,18,19,20,21,22,23,24,25,26,29,30,31,32,33,34,35,36,37,38,39,40,42,44,47,48,49,50,51,53,60,19,20,21,22,23,24,25,26,27,28,30,31,32,33,34,35,36,37,38,39,40,41,42,43,44,45,46,47,48,49,50,51,52,53,54,57,58,59,60,20,21,22,23,24,25,26,27,28,29,30,31,32,33,34,35,36,37,38,39,40,41,42,43,44,45,46,47,48,49,50,51,53,55,57,60,22,23,24,25,27,28,29,31,33,35,36,38,41,42,43,45,46,58,60,22,23,24,25,27,28,29,31,33,35,36,38,41,42,43,45,46,58,60,23,24,25,26,27,28,29,30,31,32,33,34,35,36,37,38,39,40,41,42,43,44,45,46,47,48,49,50,51,52,53,54,55,56,57,58,59,60,24,25,26,27,28,29,30,31,32,33,34,35,36,37,38,39,40,41,42,43,44,45,46,47,48,49,50,52,54,55,56,57,58,59,60,25,26,27,28,29,30,31,32,33,35,36,37,38,40,41,42,44,45,46,47,50,51,53,57,58,59,60,26,27,28,29,30,31,32,33,34,37,38,39,40,41,43,44,46,47,48,49,50,51,52,53,54,55,56,57,60,61,27,28,29,31,33,35,36,38,41,42,43,45,46,58,60,29,30,31,32,33,34,35,36,37,38,39,40,41,42,43,44,47,48,49,50,51,52,53,54,55,56,60,61,29,30,31,32,33,34,35,36,37,38,39,40,41,42,43,44,47,48,49,50,51,52,53,54,55,56,60,61,30,31,32,33,34,35,36,37,38,39,40,41,42,43,44,45,46,47,48,49,50,51,52,53,54,57,58,59,60,31,32,33,35,36,37,38,39,40,41,42,43,44,45,46,47,49,50,51,53,55,57,58,59,60,32,33,34,35,36,38,41,42,43,44,46,48,50,52,54,55,57,60,33,34,35,36,37,38,39,41,42,43,45,46,48,49,52,58,60,34,35,36,37,38,39,40,41,42,43,44,45,46,47,48,49,50,51,52,53,54,55,56,58,60,61,35,36,37,38,39,40,41,42,43,44,45,46,47,49,50,51,53,55,57,58,59,60,36,37,38,39,40,41,43,44,46,47,48,49,50,51,52,53,54,55,56,57,60,61,37,38,39,40,41,43,44,46,47,48,49,50,51,52,53,54,55,56,57,60,61,38,40,41,42,43,44,45,46,47,48,50,51,52,54,55,57,58,59,60,39,40,41,43,44,46,47,48,49,50,51,52,53,54,55,56,57,60,61,40,41,42,43,44,45,46,47,48,50,51,52,53,54,55,57,58,59,60,41,42,43,44,45,46,48,49,50,52,54,55,56,57,58,59,60,42,43,44,45,46,47,48,49,50,51,53,55,57,58,59,60,43,44,46,47,48,49,50,51,52,53,54,55,56,57,60,61,44,45,46,47,48,49,50,51,52,53,54,57,58,59,60,45,46,47,48,49,50,51,52,53,54,55,56,58,60,61,46,47,48,49,50,51,52,53,54,55,56,57,60,61,47,48,49,50,51,52,53,54,55,56,58,60,61,48,49,50,52,54,55,56,57,58,59,60,49,50,51,53,55,57,58,59,60,50,51,52,53,54,55,57,58,59,60,51,52,53,57,58,60,52,54,55,56,57,58,59,60,53,55,57,58,59,60,54,55,56,57,58,59,60,55,57,58,59,60,57,58,59,60,57,58,59,60,58,60,61,60,61,60,61,61];

USEFUL_RES = [{},
	{1,2,6,8,9,10,12,13,17,19,20},
	{19},
	{1,3,4,11,13,14,16},
	{1,3,4,5,7,10,11,13,14,15,16},
	{1,2,3,4,6,9,10,11,12,13,14,16,17,19,20},
	{1,2,5,7,10,11,12,15,17},
	{1,2,6,8,9,10,13,17,19,20},
	{1,6,7,8,9,11,13,15,16,19,20},
	{1,3,4,6,8,9,11,13,14,16,19,20},
	{1,3,4,5,6,7,8,9,10,11,13,14,15,16,18,19,20},
	{11,15},
	{1,2,5,7,10,11,15,17},
	{1,3,5,7,10,11,15,16,19},
	{1,2,3,4,10,11,13,14,16,17,18},
	{5,7,10,11,15},
	{1,3,4,6,7,8,9,11,13,14,15,16,19,20},
	{1,2,3,4,7,10,11,12,13,14,15,16,17},
	{1,3,4,6,8,9,11,13,14,16,19,20},
	{1,3,4,5,6,7,9,10,11,13,14,15,16,19,20},
	{1,3,4,6,9,11,13,14,16,19,20},
	{1,2,3,6,7,8,9,10,11,12,13,15,16,17,19,20},
	{1,2,3,10,11,16,17},
	{1,2,5,7,10,11,12,15,16,17},
	{1,3,4,5,6,7,8,9,10,11,13,14,15,16,19,20},
	{1,2,6,8,9,10,11,12,13,17,18,19,20},
	{1,2,10,11,12,16,17},
	{1,3,4,11,13,14,16},
	{1,2,3,6,8,9,10,11,12,13,16,17,19,20},
	{1,2,3,4,6,8,9,10,11,12,13,14,16,17,18,19,20},
	{1,2,3,4,6,9,10,11,12,13,14,16,17,19,20},
	{1,3,4,5,6,7,8,9,10,11,13,14,15,16,19,20},
	{5,7,10,11,15},
	{11,13,18},
	{6,8,9,13,19,20},
	{1,2,3,4,5,7,10,11,12,13,14,15,16,17},
	{11,13,18},
	{1,2,5,7,10,11,12,13,15,16,17,18},
	{1,2,3,4,5,7,10,11,13,14,15,16,17},
	{1,2,3,4,10,11,12,13,14,16,17},
	{1,2,3,6,9,10,11,12,13,16,17,18,19,20},
	{1,3,4,11,13,14,16},
	{1,3,4,5,6,7,8,9,10,11,13,14,15,16,19,20},
	{1,2,3,6,7,8,9,10,11,12,13,15,16,17,18,19,20},
	{1,3,4,5,6,7,8,9,10,11,13,14,15,16,18,19,20},
	{1,2,3,4,5,6,7,8,9,10,11,12,13,14,15,16,17,19,20},
	{5,6,7,9,10,11,15,19,20},
	{5,7,10,11,15},
	{7,11,15},
	{1,3,4,7,11,13,14,15,16,18},
	{1,2,3,4,5,7,10,11,12,13,14,15,16,17},
	{1,2,3,4,5,7,10,11,12,13,14,15,16,17},
	{1,2,3,4,7,10,11,13,14,15,16,17},
	{1,3,11,16,19},
	{1,2,3,6,8,9,10,11,12,13,16,17,19,20},
	{1,2,10,12,17},
	{1,2,3,4,6,8,9,10,11,12,13,14,16,17,19,20},
	{1,2,5,6,7,8,9,10,11,12,13,15,17,19,20},
	{1,2,5,6,7,9,10,11,12,13,15,17,18,19,20},
	{1,2,3,4,10,11,12,13,14,16,17},
	{1,2,3,4,6,7,8,9,10,11,12,13,14,15,16,17,19,20},
	{}];

POTENTIAL_ACT = [{2,4,5,6,7,8,9,10,11,13,14,15,17,18,19,20,21,22,23,24,25,26,27,28,29,30,31,32,36,38,39,40,41,42,43,44,45,46,50,51,52,53,54,55,56,57,58,59,60,61},
	{2,6,7,8,13,15,18,22,23,24,26,27,29,30,31,36,38,39,40,41,44,46,51,52,53,55,56,57,58,59,60,61},
	{4,5,6,10,11,14,15,17,18,19,20,21,22,23,25,28,29,30,31,32,36,39,40,41,42,43,44,45,46,50,51,52,53,54,55,57,60,61},
	{4,5,6,10,11,15,17,18,19,20,21,25,28,30,31,32,36,39,40,42,43,45,46,50,51,52,53,57,60,61},
	{5,7,11,13,14,16,20,24,25,32,33,36,38,39,43,45,46,47,48,51,52,58,59},
	{2,6,8,9,10,11,17,19,20,21,22,25,26,29,30,31,32,35,41,43,44,45,46,47,55,57,58,59,61},
	{5,7,9,11,13,14,16,17,18,20,22,24,25,32,33,36,38,39,43,44,45,46,47,48,49,50,51,52,53,58,59,61},
	{2,8,9,10,11,17,19,22,25,26,29,30,32,35,43,44,45,46,55,57,58,61},
	{2,6,8,9,10,11,17,19,20,21,22,25,26,29,30,31,32,35,41,43,44,45,46,47,55,57,58,59,61},
	{2,5,6,7,8,11,13,14,15,16,18,20,22,23,24,25,26,27,29,30,31,32,33,36,38,39,40,41,43,44,45,46,47,48,51,52,53,55,56,57,58,59,60,61},
	{4,5,6,7,9,10,11,12,13,14,15,16,17,18,19,20,21,22,23,24,25,26,27,28,29,30,31,32,33,34,36,37,38,39,40,41,42,43,44,45,46,47,48,49,50,51,52,53,54,55,57,58,59,60,61},
	{2,6,7,18,22,24,26,27,29,30,31,36,38,40,41,44,46,51,52,55,56,57,58,59,60,61},
	{2,4,5,6,8,9,10,11,15,17,18,19,20,21,22,25,26,28,29,30,31,32,34,35,36,37,38,39,40,41,42,43,44,45,46,50,51,52,53,55,57,58,59,60,61},
	{4,5,6,10,11,15,17,18,19,20,21,25,28,30,31,32,36,39,40,42,43,45,46,50,51,52,53,57,60,61},
	{5,7,9,11,12,13,14,16,17,18,20,22,24,25,32,33,36,38,39,43,44,45,46,47,48,49,50,51,52,53,58,59,61},
	{4,5,6,9,10,11,14,15,17,18,19,20,21,22,23,24,25,27,28,29,30,31,32,36,38,39,40,41,42,43,44,45,46,50,51,52,53,54,55,57,60,61},
	{2,6,7,8,13,15,18,22,23,24,26,27,29,30,31,36,38,39,40,41,44,46,51,52,53,55,56,57,58,59,60,61},
	{11,15,26,30,34,37,38,41,44,45,50,59},
	{2,3,6,8,9,10,11,14,17,19,20,21,22,25,26,29,30,31,32,35,41,43,44,45,46,47,54,55,57,58,59,61},
	{2,6,8,9,10,11,17,19,20,21,22,25,26,29,30,31,32,35,41,43,44,45,46,47,55,57,58,59,61}];
